sat
(
(define-fun S () String "")
(define-fun J () String "")
(define-fun V () String "aaaaaaaaaabbabbbbaa")
(define-fun F () String "aaaaaaaaaabbab")
(define-fun L () String "")
(define-fun M () String "")
(define-fun P () String "")
(define-fun Q () String "")
)
